(declare-const a Real)
(declare-const b Real)
(declare-const c Real)
(assert (= (+ a b c) 3))
(assert (> a 0))
(assert (> b 0))
(assert (> c 0))
(assert (not (<= (+ (pow (* (+ (pow b 2) (* (pow a 2) (pow b 6) (pow c 2))) (+ (* 238563864900 (pow c 2)) (* 238563864900 (pow a 6) (pow c 4)))) (/ 1 2)) (* -36 (pow (+ a b c) 6)) (* -288684 (pow a 3) (pow b 3)) (* -288684 (pow a 3) (pow c 3)) (* -62694 (pow a 2) (pow b 4)) (* -62694 (pow a 2) (pow c 4)) (* -62694 (pow a 4) (pow b 2)) (* -62694 (pow a 4) (pow c 2)) (* -62694 (pow b 2) (pow c 4)) (* -62694 (pow b 4) (pow c 2)) (* -44469 (pow b 3) (pow c 3)) (* -18954 a (pow b 5)) (* -18954 a (pow c 5)) (* -18954 b (pow a 5)) (* -18954 b (pow c 5)) (* -18954 c (pow a 5)) (* -18954 c (pow b 5)) (* -1548396 (pow a 2) (pow b 2) (pow c 2)) (* 488430 c (pow a 2) (pow b 3)) (* 488430 c (pow a 3) (pow b 2)) (* 732645 b (pow a 2) (pow c 3))) 0)))
(check-sat)
(get-model)
(exit)